<instance format="XCSP3" type="CSP">
  <variables>
    <array id="p" note="p[i][j] is one of the position of the jth value of the ith 4-combination" size="[15][16]"> 0..20 </array>
    <array id="v" note="v[i][j] is the jth value of the ith 4-combination" size="[15][21]"> 0..15 </array>
  </variables>
  <constraints>
    <group note="all values must be present in each 4-combination">
      <allDifferent> %... </allDifferent>
      <args> p[0][] </args>
      <args> p[1][] </args>
      <args> p[2][] </args>
      <args> p[3][] </args>
      <args> p[4][] </args>
      <args> p[5][] </args>
      <args> p[6][] </args>
      <args> p[7][] </args>
      <args> p[8][] </args>
      <args> p[9][] </args>
      <args> p[10][] </args>
      <args> p[11][] </args>
      <args> p[12][] </args>
      <args> p[13][] </args>
      <args> p[14][] </args>
    </group>
    <channel>
      <list> p[0][] </list>
      <list> v[0][] </list>
    </channel>
    <channel>
      <list> p[1][] </list>
      <list> v[1][] </list>
    </channel>
    <channel>
      <list> p[2][] </list>
      <list> v[2][] </list>
    </channel>
    <channel>
      <list> p[3][] </list>
      <list> v[3][] </list>
    </channel>
    <channel>
      <list> p[4][] </list>
      <list> v[4][] </list>
    </channel>
    <channel>
      <list> p[5][] </list>
      <list> v[5][] </list>
    </channel>
    <channel>
      <list> p[6][] </list>
      <list> v[6][] </list>
    </channel>
    <channel>
      <list> p[7][] </list>
      <list> v[7][] </list>
    </channel>
    <channel>
      <list> p[8][] </list>
      <list> v[8][] </list>
    </channel>
    <channel>
      <list> p[9][] </list>
      <list> v[9][] </list>
    </channel>
    <channel>
      <list> p[10][] </list>
      <list> v[10][] </list>
    </channel>
    <channel>
      <list> p[11][] </list>
      <list> v[11][] </list>
    </channel>
    <channel>
      <list> p[12][] </list>
      <list> v[12][] </list>
    </channel>
    <channel>
      <list> p[13][] </list>
      <list> v[13][] </list>
    </channel>
    <channel>
      <list> p[14][] </list>
      <list> v[14][] </list>
    </channel>
    <group note="computing values">
      <extension>
        <list> %... </list>
        <supports> (0,0,0,0,0,0,0,0,0,0,0,0,0,0,0)(0,0,1,0,1,1,0,1,1,1,0,1,1,1,1)(0,1,0,1,0,2,1,0,2,2,1,0,2,2,2)(0,1,1,1,1,3,1,1,3,3,1,1,3,3,3)(1,0,0,2,2,0,2,2,0,4,2,2,0,4,4)(1,0,1,2,3,1,2,3,1,5,2,3,1,5,5)(1,1,0,3,2,2,3,2,2,6,3,2,2,6,6)(1,1,1,3,3,3,3,3,3,7,3,3,3,7,7)(2,2,2,0,0,0,4,4,4,0,4,4,4,0,8)(2,2,3,0,1,1,4,5,5,1,4,5,5,1,9)(2,3,2,1,0,2,5,4,6,2,5,4,6,2,10)(2,3,3,1,1,3,5,5,7,3,5,5,7,3,11)(3,2,2,2,2,0,6,6,4,4,6,6,4,4,12)(3,2,3,2,3,1,6,7,5,5,6,7,5,5,13)(3,3,2,3,2,2,7,6,6,6,7,6,6,6,14)(3,3,3,3,3,3,7,7,7,7,7,7,7,7,15)(4,4,4,4,4,4,0,0,0,0,8,8,8,8,0)(4,4,5,4,5,5,0,1,1,1,8,9,9,9,1)(4,5,4,5,4,6,1,0,2,2,9,8,10,10,2)(4,5,5,5,5,7,1,1,3,3,9,9,11,11,3)(5,4,4,6,6,4,2,2,0,4,10,10,8,12,4)(5,4,5,6,7,5,2,3,1,5,10,11,9,13,5)(5,5,4,7,6,6,3,2,2,6,11,10,10,14,6)(5,5,5,7,7,7,3,3,3,7,11,11,11,15,7)(6,6,6,4,4,4,4,4,4,0,12,12,12,8,8)(6,6,7,4,5,5,4,5,5,1,12,13,13,9,9)(6,7,6,5,4,6,5,4,6,2,13,12,14,10,10)(6,7,7,5,5,7,5,5,7,3,13,13,15,11,11)(7,6,6,6,6,4,6,6,4,4,14,14,12,12,12)(7,6,7,6,7,5,6,7,5,5,14,15,13,13,13)(7,7,6,7,6,6,7,6,6,6,15,14,14,14,14)(7,7,7,7,7,7,7,7,7,7,15,15,15,15,15)(8,8,8,8,8,8,8,8,8,8,0,0,0,0,0)(8,8,9,8,9,9,8,9,9,9,0,1,1,1,1)(8,9,8,9,8,10,9,8,10,10,1,0,2,2,2)(8,9,9,9,9,11,9,9,11,11,1,1,3,3,3)(9,8,8,10,10,8,10,10,8,12,2,2,0,4,4)(9,8,9,10,11,9,10,11,9,13,2,3,1,5,5)(9,9,8,11,10,10,11,10,10,14,3,2,2,6,6)(9,9,9,11,11,11,11,11,11,15,3,3,3,7,7)(10,10,10,8,8,8,12,12,12,8,4,4,4,0,8)(10,10,11,8,9,9,12,13,13,9,4,5,5,1,9)(10,11,10,9,8,10,13,12,14,10,5,4,6,2,10)(10,11,11,9,9,11,13,13,15,11,5,5,7,3,11)(11,10,10,10,10,8,14,14,12,12,6,6,4,4,12)(11,10,11,10,11,9,14,15,13,13,6,7,5,5,13)(11,11,10,11,10,10,15,14,14,14,7,6,6,6,14)(11,11,11,11,11,11,15,15,15,15,7,7,7,7,15)(12,12,12,12,12,12,8,8,8,8,8,8,8,8,0)(12,12,13,12,13,13,8,9,9,9,8,9,9,9,1)(12,13,12,13,12,14,9,8,10,10,9,8,10,10,2)(12,13,13,13,13,15,9,9,11,11,9,9,11,11,3)(13,12,12,14,14,12,10,10,8,12,10,10,8,12,4)(13,12,13,14,15,13,10,11,9,13,10,11,9,13,5)(13,13,12,15,14,14,11,10,10,14,11,10,10,14,6)(13,13,13,15,15,15,11,11,11,15,11,11,11,15,7)(14,14,14,12,12,12,12,12,12,8,12,12,12,8,8)(14,14,15,12,13,13,12,13,13,9,12,13,13,9,9)(14,15,14,13,12,14,13,12,14,10,13,12,14,10,10)(14,15,15,13,13,15,13,13,15,11,13,13,15,11,11)(15,14,14,14,14,12,14,14,12,12,14,14,12,12,12)(15,14,15,14,15,13,14,15,13,13,14,15,13,13,13)(15,15,14,15,14,14,15,14,14,14,15,14,14,14,14)(15,15,15,15,15,15,15,15,15,15,15,15,15,15,15) </supports>
      </extension>
      <args> v[][0] </args>
      <args> v[][1] </args>
      <args> v[][2] </args>
      <args> v[][3] </args>
      <args> v[][4] </args>
      <args> v[][5] </args>
      <args> v[][6] </args>
      <args> v[][7] </args>
      <args> v[][8] </args>
      <args> v[][9] </args>
      <args> v[][10] </args>
      <args> v[][11] </args>
      <args> v[][12] </args>
      <args> v[][13] </args>
      <args> v[][14] </args>
      <args> v[][15] </args>
      <args> v[][16] </args>
      <args> v[][17] </args>
      <args> v[][18] </args>
      <args> v[][19] </args>
      <args> v[][20] </args>
    </group>
  </constraints>
</instance>
